TIP.Original.Linear/tip2015_weird_nat_op_assoc2.smt2
(set-logic HORN)
(declare-datatypes ((Nat_311 0)) (((zero_60 ) (succ_59 (p_164 Nat_311)))))
(declare-fun diseqNat_311 (Nat_311 Nat_311) Bool)
(declare-fun p_165 (Nat_311 Nat_311) Bool)
(declare-fun iszero_59 (Nat_311) Bool)
(declare-fun issucc_59 (Nat_311) Bool)
(assert (forall ((x_26738 Nat_311))
	(p_165 x_26738 (succ_59 x_26738))))
(assert (iszero_59 zero_60))
(assert (forall ((x_26740 Nat_311))
	(issucc_59 (succ_59 x_26740))))
(assert (forall ((x_26741 Nat_311))
	(diseqNat_311 zero_60 (succ_59 x_26741))))
(assert (forall ((x_26742 Nat_311))
	(diseqNat_311 (succ_59 x_26742) zero_60)))
(assert (forall ((x_26743 Nat_311) (x_26744 Nat_311))
	(=> (diseqNat_311 x_26743 x_26744)
	    (diseqNat_311 (succ_59 x_26743) (succ_59 x_26744)))))
(declare-fun op_2 (Nat_311 Nat_311 Nat_311 Nat_311 Nat_311) Bool)
(assert (forall ((x_26727 Nat_311) (x_26724 Nat_311) (x_26722 Nat_311) (y_1065 Nat_311) (x_26723 Nat_311))
	(=> (op_2 x_26727 x_26722 y_1065 x_26724 (succ_59 x_26723))
	    (op_2 x_26727 x_26722 y_1065 (succ_59 x_26724) x_26723))))
(assert (forall ((x_26729 Nat_311) (x_26725 Nat_311) (y_1065 Nat_311) (x_26723 Nat_311))
	(=> (op_2 x_26729 x_26725 y_1065 y_1065 x_26723)
	    (op_2 x_26729 (succ_59 x_26725) y_1065 zero_60 x_26723))))
(assert (forall ((y_1065 Nat_311) (x_26723 Nat_311))
	(op_2 x_26723 zero_60 y_1065 zero_60 x_26723)))
(assert (forall ((x_26732 Nat_311) (x_26733 Nat_311) (x_26734 Nat_311) (x_26735 Nat_311) (x_26726 Nat_311) (a_31 Nat_311) (b_22 Nat_311) (c_11 Nat_311) (d_3 Nat_311))
	(=>	(and true
			(diseqNat_311 x_26733 x_26735)
			(op_2 x_26732 x_26726 a_31 a_31 a_31)
			(op_2 x_26733 x_26732 b_22 c_11 d_3)
			(op_2 x_26734 b_22 x_26726 b_22 b_22)
			(op_2 x_26735 a_31 x_26734 c_11 d_3))
		false)))
(check-sat)
